cost: 857.35
Route 1:           0    2   27    0
Route 2:           0   17   49   39   25    0
Route 3:           0   44   13   28   21    0
Route 4:           0   24   29   41   40   11    0
Route 5:           0   30   22   12   47   15    0
Route 6:           0   32   35    4    0
Route 7:           0   36    8    6    0
Route 8:           0   42   46   16   14   34    9    3    1    0
Route 9:           0   43   45   18    5   33   38    0
Route 10:          0   50   20   19    7   26   31   10   37   23   48    0
